
Log started (V11.0.0) Mon Apr 14 18:07:31 2008

Tried aggregator 1 time.
Reduced MIP has 550 rows, 25001 columns, and 50050 nonzeros.
Presolve time =    0.19 sec.
Clique table members: 500.
MIP emphasis: balance optimality and feasibility.
MIP search method: dynamic search.
Parallel mode: none, using 1 thread.
Root relaxation solution time =    1.00 sec.

        Nodes                                         Cuts/
   Node  Left     Objective  IInf  Best Integer     Best Node    ItCnt     Gap

*     0+    0                        25017.0000       24.8091     1462   99.90%
*     0+    0                           31.0000       24.8091     1462   19.97%
      0     0       25.0000    77       31.0000      Fract: 4     1489   19.35%
*     0+    0                           30.0000       25.0000     1489   16.67%
*     0+    0                           29.0000       25.0000     1489   13.79%
*     0+    0                           28.0000       25.0000     1489   10.71%

Repeating presolve.
Tried aggregator 1 time.
MIP Presolve eliminated 0 rows and 18308 columns.
Reduced MIP has 550 rows, 6693 columns, and 13434 nonzeros.
Tried aggregator 1 time.
Represolve time =    0.41 sec.
Clique table members: 1065.
MIP emphasis: balance optimality and feasibility.
MIP search method: dynamic search.
Parallel mode: none, using 1 thread.
Root relaxation solution time =    0.22 sec.

        Nodes                                         Cuts/
   Node  Left     Objective  IInf  Best Integer     Best Node    ItCnt     Gap

      0     0       25.0000    89       28.0000       25.0000      962   10.71%
      0     2       25.0000    89       28.0000       25.0000      962   10.71%
*    10+   10                           27.0000       25.0000     1689    7.41%
    100    97       26.0000    40       27.0000       25.0000     5009    7.41%
    200   193       26.0000    46       27.0000       25.0000     9613    7.41%
    300   277       26.0000    64       27.0000       25.0000    16658    7.41%
    400   357       26.0000    72       27.0000       25.0000    24837    7.41%
    500   444       25.0000    84       27.0000       25.0000    32524    7.41%
*   512+   61                           26.0000       25.0000    33273    3.85%

Cover cuts applied:  73
Zero-half cuts applied:  5
Gomory fractional cuts applied:  21

Solution pool: 7 solutions saved.

MIP - Integer optimal solution:  Objective = 2.6000000000e+001
Solution time =   28.41 sec.  Iterations = 34712  Nodes = 514 (64)


Incumbent solution
Variable Name           Solution Value
Cmax                         26.000000
X_1_43                        1.000000
X_2_41                        1.000000
X_3_13                        1.000000
X_4_41                        1.000000
X_5_5                         1.000000
X_6_3                         1.000000
X_7_27                        1.000000
X_8_34                        1.000000
X_9_21                        1.000000
X_10_19                       1.000000
X_11_40                       1.000000
X_12_8                        1.000000
X_13_45                       1.000000
X_14_42                       1.000000
X_15_23                       1.000000
X_16_15                       1.000000
X_17_6                        1.000000
X_18_22                       1.000000
X_19_13                       1.000000
X_20_18                       1.000000
X_21_1                        1.000000
X_22_40                       1.000000
X_23_50                       1.000000
X_24_26                       1.000000
X_25_30                       1.000000
X_26_42                       1.000000
X_27_27                       1.000000
X_28_39                       1.000000
X_29_33                       1.000000
X_30_25                       1.000000
X_31_5                        1.000000
X_32_21                       1.000000
X_33_40                       1.000000
X_34_43                       1.000000
X_35_35                       1.000000
X_36_50                       1.000000
X_37_20                       1.000000
X_38_20                       1.000000
X_39_23                       1.000000
X_40_3                        1.000000
X_41_31                       1.000000
X_42_2                        1.000000
X_43_10                       1.000000
X_44_33                       1.000000
X_45_22                       1.000000
X_46_11                       1.000000
X_47_34                       1.000000
X_48_33                       1.000000
X_49_16                       1.000000
X_50_35                       1.000000
X_51_8                        1.000000
X_52_16                       1.000000
X_53_16                       1.000000
X_54_36                       1.000000
X_55_28                       1.000000
X_56_32                       1.000000
X_57_21                       1.000000
X_58_7                        1.000000
X_59_29                       1.000000
X_60_18                       1.000000
X_61_22                       1.000000
X_62_5                        1.000000
X_63_43                       1.000000
X_64_32                       1.000000
X_65_34                       1.000000
X_66_46                       1.000000
X_67_17                       1.000000
X_68_32                       1.000000
X_69_17                       1.000000
X_70_26                       1.000000
X_71_34                       1.000000
X_72_42                       1.000000
X_73_18                       1.000000
X_74_49                       1.000000
X_75_29                       1.000000
X_76_5                        1.000000
X_77_47                       1.000000
X_78_23                       1.000000
X_79_19                       1.000000
X_80_21                       1.000000
X_81_46                       1.000000
X_82_27                       1.000000
X_83_11                       1.000000
X_84_4                        1.000000
X_85_36                       1.000000
X_86_17                       1.000000
X_87_41                       1.000000
X_88_12                       1.000000
X_89_38                       1.000000
X_90_21                       1.000000
X_91_6                        1.000000
X_92_48                       1.000000
X_93_33                       1.000000
X_94_35                       1.000000
X_95_3                        1.000000
X_96_32                       1.000000
X_97_19                       1.000000
X_98_41                       1.000000
X_99_43                       1.000000
X_100_37                      1.000000
X_101_19                      1.000000
X_102_36                      1.000000
X_103_17                      1.000000
X_104_22                      1.000000
X_105_35                      1.000000
X_106_11                      1.000000
X_107_9                       1.000000
X_108_16                      1.000000
X_109_31                      1.000000
X_110_24                      1.000000
X_111_26                      1.000000
X_112_1                       1.000000
X_113_48                      1.000000
X_114_50                      1.000000
X_115_38                      1.000000
X_116_39                      1.000000
X_117_1                       1.000000
X_118_48                      1.000000
X_119_20                      1.000000
X_120_38                      1.000000
X_121_44                      1.000000
X_122_47                      1.000000
X_123_23                      1.000000
X_124_8                       1.000000
X_125_2                       1.000000
X_126_14                      1.000000
X_127_8                       1.000000
X_128_12                      1.000000
X_129_10                      1.000000
X_130_2                       1.000000
X_131_17                      1.000000
X_132_39                      1.000000
X_133_36                      1.000000
X_134_27                      1.000000
X_135_38                      1.000000
X_136_48                      1.000000
X_137_31                      1.000000
X_138_16                      1.000000
X_139_17                      1.000000
X_140_37                      1.000000
X_141_9                       1.000000
X_142_11                      1.000000
X_143_29                      1.000000
X_144_49                      1.000000
X_145_45                      1.000000
X_146_18                      1.000000
X_147_14                      1.000000
X_148_32                      1.000000
X_149_23                      1.000000
X_150_30                      1.000000
X_151_50                      1.000000
X_152_24                      1.000000
X_153_34                      1.000000
X_154_22                      1.000000
X_155_12                      1.000000
X_156_10                      1.000000
X_157_28                      1.000000
X_158_14                      1.000000
X_159_8                       1.000000
X_160_14                      1.000000
X_161_42                      1.000000
X_162_9                       1.000000
X_163_31                      1.000000
X_164_39                      1.000000
X_165_17                      1.000000
X_166_21                      1.000000
X_167_2                       1.000000
X_168_45                      1.000000
X_169_3                       1.000000
X_170_39                      1.000000
X_171_40                      1.000000
X_172_26                      1.000000
X_173_42                      1.000000
X_174_26                      1.000000
X_175_4                       1.000000
X_176_50                      1.000000
X_177_50                      1.000000
X_178_20                      1.000000
X_179_3                       1.000000
X_180_36                      1.000000
X_181_19                      1.000000
X_182_16                      1.000000
X_183_3                       1.000000
X_184_24                      1.000000
X_185_29                      1.000000
X_186_40                      1.000000
X_187_46                      1.000000
X_188_38                      1.000000
X_189_4                       1.000000
X_190_34                      1.000000
X_191_38                      1.000000
X_192_7                       1.000000
X_193_50                      1.000000
X_194_14                      1.000000
X_195_8                       1.000000
X_196_18                      1.000000
X_197_14                      1.000000
X_198_48                      1.000000
X_199_26                      1.000000
X_200_17                      1.000000
X_201_11                      1.000000
X_202_43                      1.000000
X_203_42                      1.000000
X_204_39                      1.000000
X_205_8                       1.000000
X_206_50                      1.000000
X_207_2                       1.000000
X_208_9                       1.000000
X_209_44                      1.000000
X_210_4                       1.000000
X_211_14                      1.000000
X_212_45                      1.000000
X_213_1                       1.000000
X_214_15                      1.000000
X_215_31                      1.000000
X_216_11                      1.000000
X_217_46                      1.000000
X_218_17                      1.000000
X_219_33                      1.000000
X_220_41                      1.000000
X_221_46                      1.000000
X_222_17                      1.000000
X_223_35                      1.000000
X_224_27                      1.000000
X_225_45                      1.000000
X_226_42                      1.000000
X_227_29                      1.000000
X_228_12                      1.000000
X_229_6                       1.000000
X_230_12                      1.000000
X_231_37                      1.000000
X_232_37                      1.000000
X_233_7                       1.000000
X_234_42                      1.000000
X_235_46                      1.000000
X_236_7                       1.000000
X_237_26                      1.000000
X_238_2                       1.000000
X_239_37                      1.000000
X_240_45                      1.000000
X_241_49                      1.000000
X_242_31                      1.000000
X_243_47                      1.000000
X_244_2                       1.000000
X_245_29                      1.000000
X_246_26                      1.000000
X_247_39                      1.000000
X_248_5                       1.000000
X_249_49                      1.000000
X_250_24                      1.000000
X_251_13                      1.000000
X_252_34                      1.000000
X_253_1                       1.000000
X_254_3                       1.000000
X_255_40                      1.000000
X_256_8                       1.000000
X_257_38                      1.000000
X_258_42                      1.000000
X_259_48                      1.000000
X_260_44                      1.000000
X_261_19                      1.000000
X_262_49                      1.000000
X_263_31                      1.000000
X_264_12                      1.000000
X_265_31                      1.000000
X_266_20                      1.000000
X_267_30                      1.000000
X_268_3                       1.000000
X_269_1                       1.000000
X_270_43                      1.000000
X_271_48                      1.000000
X_272_28                      1.000000
X_273_30                      1.000000
X_274_5                       1.000000
X_275_7                       1.000000
X_276_44                      1.000000
X_277_8                       1.000000
X_278_23                      1.000000
X_279_33                      1.000000
X_280_29                      1.000000
X_281_29                      1.000000
X_282_38                      1.000000
X_283_25                      1.000000
X_284_37                      1.000000
X_285_23                      1.000000
X_286_46                      1.000000
X_287_43                      1.000000
X_288_11                      1.000000
X_289_13                      1.000000
X_290_4                       1.000000
X_291_3                       1.000000
X_292_13                      1.000000
X_293_34                      1.000000
X_294_47                      1.000000
X_295_46                      1.000000
X_296_6                       1.000000
X_297_19                      1.000000
X_298_23                      1.000000
X_299_29                      1.000000
X_300_36                      1.000000
X_301_25                      1.000000
X_302_13                      1.000000
X_303_37                      1.000000
X_304_20                      1.000000
X_305_34                      1.000000
X_306_3                       1.000000
X_307_35                      1.000000
X_308_3                       1.000000
X_309_33                      1.000000
X_310_45                      1.000000
X_311_15                      1.000000
X_312_44                      1.000000
X_313_28                      1.000000
X_314_44                      1.000000
X_315_11                      1.000000
X_316_28                      1.000000
X_317_29                      1.000000
X_318_18                      1.000000
X_319_36                      1.000000
X_320_4                       1.000000
X_321_44                      1.000000
X_322_50                      1.000000
X_323_24                      1.000000
X_324_14                      1.000000
X_325_49                      1.000000
X_326_43                      1.000000
X_327_31                      1.000000
X_328_23                      1.000000
X_329_17                      1.000000
X_330_28                      1.000000
X_331_25                      1.000000
X_332_20                      1.000000
X_333_18                      1.000000
X_334_37                      1.000000
X_335_30                      1.000000
X_336_31                      1.000000
X_337_23                      1.000000
X_338_34                      1.000000
X_339_36                      1.000000
X_340_24                      1.000000
X_341_22                      1.000000
X_342_46                      1.000000
X_343_35                      1.000000
X_344_9                       1.000000
X_345_22                      1.000000
X_346_36                      1.000000
X_347_21                      1.000000
X_348_14                      1.000000
X_349_46                      1.000000
X_350_21                      1.000000
X_351_19                      1.000000
X_352_47                      1.000000
X_353_10                      1.000000
X_354_16                      1.000000
X_355_9                       1.000000
X_356_22                      1.000000
X_357_41                      1.000000
X_358_45                      1.000000
X_359_16                      1.000000
X_360_22                      1.000000
X_361_43                      1.000000
X_362_1                       1.000000
X_363_9                       1.000000
X_364_1                       1.000000
X_365_47                      1.000000
X_366_29                      1.000000
X_367_50                      1.000000
X_368_32                      1.000000
X_369_28                      1.000000
X_370_16                      1.000000
X_371_37                      1.000000
X_372_48                      1.000000
X_373_3                       1.000000
X_374_41                      1.000000
X_375_21                      1.000000
X_376_40                      1.000000
X_377_44                      1.000000
X_378_26                      1.000000
X_379_37                      1.000000
X_380_24                      1.000000
X_381_5                       1.000000
X_382_18                      1.000000
X_383_22                      1.000000
X_384_32                      1.000000
X_385_6                       1.000000
X_386_15                      1.000000
X_387_18                      1.000000
X_388_41                      1.000000
X_389_15                      1.000000
X_390_26                      1.000000
X_391_46                      1.000000
X_392_2                       1.000000
X_393_10                      1.000000
X_394_24                      1.000000
X_395_23                      1.000000
X_396_30                      1.000000
X_397_10                      1.000000
X_398_11                      1.000000
X_399_41                      1.000000
X_400_18                      1.000000
X_401_43                      1.000000
X_402_5                       1.000000
X_403_43                      1.000000
X_404_37                      1.000000
X_405_5                       1.000000
X_406_12                      1.000000
X_407_5                       1.000000
X_408_1                       1.000000
X_409_25                      1.000000
X_410_44                      1.000000
X_411_33                      1.000000
X_412_25                      1.000000
X_413_22                      1.000000
X_414_47                      1.000000
X_415_6                       1.000000
X_416_12                      1.000000
X_417_1                       1.000000
X_418_14                      1.000000
X_419_35                      1.000000
X_420_18                      1.000000
X_421_4                       1.000000
X_422_46                      1.000000
X_423_47                      1.000000
X_424_42                      1.000000
X_425_32                      1.000000
X_426_27                      1.000000
X_427_10                      1.000000
X_428_32                      1.000000
X_429_2                       1.000000
X_430_14                      1.000000
X_431_15                      1.000000
X_432_19                      1.000000
X_433_34                      1.000000
X_434_42                      1.000000
X_435_18                      1.000000
X_436_47                      1.000000
X_437_39                      1.000000
X_438_40                      1.000000
X_439_7                       1.000000
X_440_16                      1.000000
X_441_19                      1.000000
X_442_23                      1.000000
X_443_35                      1.000000
X_444_24                      1.000000
X_445_46                      1.000000
X_446_44                      1.000000
X_447_32                      1.000000
X_448_14                      1.000000
X_449_10                      1.000000
X_450_25                      1.000000
X_451_43                      1.000000
X_452_20                      1.000000
X_453_38                      1.000000
X_454_30                      1.000000
X_455_50                      1.000000
X_456_32                      1.000000
X_457_28                      1.000000
X_458_5                       1.000000
X_459_2                       1.000000
X_460_26                      1.000000
X_461_29                      1.000000
X_462_18                      1.000000
X_463_41                      1.000000
X_464_32                      1.000000
X_465_50                      1.000000
X_466_6                       1.000000
X_467_13                      1.000000
X_468_7                       1.000000
X_469_49                      1.000000
X_470_2                       1.000000
X_471_39                      1.000000
X_472_10                      1.000000
X_473_28                      1.000000
X_474_21                      1.000000
X_475_20                      1.000000
X_476_39                      1.000000
X_477_21                      1.000000
X_478_32                      1.000000
X_479_36                      1.000000
X_480_31                      1.000000
X_481_29                      1.000000
X_482_25                      1.000000
X_483_40                      1.000000
X_484_41                      1.000000
X_485_15                      1.000000
X_486_30                      1.000000
X_487_20                      1.000000
X_488_24                      1.000000
X_489_28                      1.000000
X_490_16                      1.000000
X_491_12                      1.000000
X_492_39                      1.000000
X_493_28                      1.000000
X_494_7                       1.000000
X_495_50                      1.000000
X_496_38                      1.000000
X_497_16                      1.000000
X_498_24                      1.000000
X_499_49                      1.000000
X_500_8                       1.000000
All other variables in the range 1-25001 are 0.
